min: c;

c = 4.37262715794462 * u3_t10_h0 + 4.0628413087098 * u3_t10_h1 + 3.68451178364081 * u3_t4_h2 + 3.68451178364081 * u3_t10_h2 + 3.45691169177382 * u3_t4_h3 + 3.45691169177382 * u3_t10_h3 + 3.40237437467646 * u3_t4_h4 + 3.40237437467646 * u3_t10_h4 + 3.32094219427881 * u3_t4_h5 + 3.32094219427881 * u3_t10_h5 + 3.86999186284685 * u3_t4_h6 + 3.86999186284685 * u3_t10_h6 + 4.20636311522058 * u3_t4_h7 + 4.20636311522058 * u3_t9_h7 + 4.20636311522058 * u3_t10_h7 + 5.57398754306493 * u3_t4_h8 + 5.57398754306493 * u3_t9_h8 + 4.80019187627004 * u3_t4_h9 + 4.80019187627004 * u3_t9_h9 + 5.11288453326342 * u3_t4_h10 + 5.11288453326342 * u3_t6_h10 + 5.11288453326342 * u3_t9_h10 + 3.52462872825933 * u3_t3_h11 + 3.52462872825933 * u3_t4_h11 + 3.52462872825933 * u3_t6_h11 + 3.52462872825933 * u3_t9_h11 + 6.5945838227744 * u3_t3_h12 + 6.5945838227744 * u3_t4_h12 + 6.5945838227744 * u3_t6_h12 + 6.5945838227744 * u3_t9_h12 + 4.48608901774641 * u3_t3_h13 + 4.48608901774641 * u3_t4_h13 + 4.48608901774641 * u3_t5_h13 + 4.48608901774641 * u3_t6_h13 + 4.48608901774641 * u3_t9_h13 + 5.39298743877051 * u3_t3_h14 + 5.39298743877051 * u3_t4_h14 + 5.39298743877051 * u3_t5_h14 + 5.39298743877051 * u3_t6_h14 + 5.39298743877051 * u3_t9_h14 + 6.11184805486147 * u3_t2_h15 + 6.11184805486147 * u3_t3_h15 + 6.11184805486147 * u3_t4_h15 + 6.11184805486147 * u3_t5_h15 + 6.11184805486147 * u3_t6_h15 + 6.11184805486147 * u3_t9_h15 + 5.41970288296053 * u3_t2_h16 + 5.41970288296053 * u3_t4_h16 + 5.41970288296053 * u3_t5_h16 + 5.41970288296053 * u3_t6_h16 + 5.41970288296053 * u3_t9_h16 + 6.59559584811664 * u3_t2_h17 + 6.59559584811664 * u3_t4_h17 + 6.59559584811664 * u3_t6_h17 + 6.59559584811664 * u3_t9_h17 + 6.50636482703784 * u3_t2_h18 + 6.50636482703784 * u3_t6_h18 + 6.50636482703784 * u3_t9_h18 + 5.96745948913791 * u3_t2_h19 + 5.96745948913791 * u3_t9_h19 + 5.46663546580134 * u3_t1_h20 + 5.46663546580134 * u3_t2_h20 + 5.46663546580134 * u3_t8_h20 + 5.46663546580134 * u3_t9_h20 + 5.31061806778933 * u3_t1_h21 + 5.31061806778933 * u3_t2_h21 + 5.31061806778933 * u3_t7_h21 + 5.31061806778933 * u3_t8_h21 + 5.31061806778933 * u3_t9_h21 + 5.29273776731031 * u3_t1_h22 + 5.29273776731031 * u3_t7_h22 + 5.29273776731031 * u3_t8_h22 + 5.91240651330332 * u3_t1_h23 + 5.91240651330332 * u3_t7_h23 + 5.91240651330332 * u3_t8_h23;
0 <= u3_t1_h20 <= 1;
0 <= u3_t1_h21 <= 1;
0 <= u3_t1_h22 <= 1;
0 <= u3_t1_h23 <= 1;
u3_t1_h20 + u3_t1_h21 + u3_t1_h22 + u3_t1_h23 = 2;
0 <= u3_t2_h15 <= 1;
0 <= u3_t2_h16 <= 1;
0 <= u3_t2_h17 <= 1;
0 <= u3_t2_h18 <= 1;
0 <= u3_t2_h19 <= 1;
0 <= u3_t2_h20 <= 1;
0 <= u3_t2_h21 <= 1;
u3_t2_h15 + u3_t2_h16 + u3_t2_h17 + u3_t2_h18 + u3_t2_h19 + u3_t2_h20 + u3_t2_h21 = 3;
0 <= u3_t3_h11 <= 1;
0 <= u3_t3_h12 <= 1;
0 <= u3_t3_h13 <= 1;
0 <= u3_t3_h14 <= 1;
0 <= u3_t3_h15 <= 1;
u3_t3_h11 + u3_t3_h12 + u3_t3_h13 + u3_t3_h14 + u3_t3_h15 = 2;
0 <= u3_t4_h2 <= 1;
0 <= u3_t4_h3 <= 1;
0 <= u3_t4_h4 <= 1;
0 <= u3_t4_h5 <= 1;
0 <= u3_t4_h6 <= 1;
0 <= u3_t4_h7 <= 1;
0 <= u3_t4_h8 <= 1;
0 <= u3_t4_h9 <= 1;
0 <= u3_t4_h10 <= 1;
0 <= u3_t4_h11 <= 1;
0 <= u3_t4_h12 <= 1;
0 <= u3_t4_h13 <= 1;
0 <= u3_t4_h14 <= 1;
0 <= u3_t4_h15 <= 1;
0 <= u3_t4_h16 <= 1;
0 <= u3_t4_h17 <= 1;
u3_t4_h2 + u3_t4_h3 + u3_t4_h4 + u3_t4_h5 + u3_t4_h6 + u3_t4_h7 + u3_t4_h8 + u3_t4_h9 + u3_t4_h10 + u3_t4_h11 + u3_t4_h12 + u3_t4_h13 + u3_t4_h14 + u3_t4_h15 + u3_t4_h16 + u3_t4_h17 = 3;
0 <= u3_t5_h13 <= 1;
0 <= u3_t5_h14 <= 1;
0 <= u3_t5_h15 <= 1;
0 <= u3_t5_h16 <= 1;
u3_t5_h13 + u3_t5_h14 + u3_t5_h15 + u3_t5_h16 = 2;
0 <= u3_t6_h10 <= 1;
0 <= u3_t6_h11 <= 1;
0 <= u3_t6_h12 <= 1;
0 <= u3_t6_h13 <= 1;
0 <= u3_t6_h14 <= 1;
0 <= u3_t6_h15 <= 1;
0 <= u3_t6_h16 <= 1;
0 <= u3_t6_h17 <= 1;
0 <= u3_t6_h18 <= 1;
u3_t6_h10 + u3_t6_h11 + u3_t6_h12 + u3_t6_h13 + u3_t6_h14 + u3_t6_h15 + u3_t6_h16 + u3_t6_h17 + u3_t6_h18 = 2;
0 <= u3_t7_h21 <= 1;
0 <= u3_t7_h22 <= 1;
0 <= u3_t7_h23 <= 1;
u3_t7_h21 + u3_t7_h22 + u3_t7_h23 = 2;
0 <= u3_t8_h20 <= 1;
0 <= u3_t8_h21 <= 1;
0 <= u3_t8_h22 <= 1;
0 <= u3_t8_h23 <= 1;
u3_t8_h20 + u3_t8_h21 + u3_t8_h22 + u3_t8_h23 = 1;
0 <= u3_t9_h7 <= 1;
0 <= u3_t9_h8 <= 1;
0 <= u3_t9_h9 <= 1;
0 <= u3_t9_h10 <= 1;
0 <= u3_t9_h11 <= 1;
0 <= u3_t9_h12 <= 1;
0 <= u3_t9_h13 <= 1;
0 <= u3_t9_h14 <= 1;
0 <= u3_t9_h15 <= 1;
0 <= u3_t9_h16 <= 1;
0 <= u3_t9_h17 <= 1;
0 <= u3_t9_h18 <= 1;
0 <= u3_t9_h19 <= 1;
0 <= u3_t9_h20 <= 1;
0 <= u3_t9_h21 <= 1;
u3_t9_h7 + u3_t9_h8 + u3_t9_h9 + u3_t9_h10 + u3_t9_h11 + u3_t9_h12 + u3_t9_h13 + u3_t9_h14 + u3_t9_h15 + u3_t9_h16 + u3_t9_h17 + u3_t9_h18 + u3_t9_h19 + u3_t9_h20 + u3_t9_h21 = 2;
0 <= u3_t10_h0 <= 1;
0 <= u3_t10_h1 <= 1;
0 <= u3_t10_h2 <= 1;
0 <= u3_t10_h3 <= 1;
0 <= u3_t10_h4 <= 1;
0 <= u3_t10_h5 <= 1;
0 <= u3_t10_h6 <= 1;
0 <= u3_t10_h7 <= 1;
u3_t10_h0 + u3_t10_h1 + u3_t10_h2 + u3_t10_h3 + u3_t10_h4 + u3_t10_h5 + u3_t10_h6 + u3_t10_h7 = 3;
